SCIP version 5.0.0 [precision: 8 byte] [memory: block] [mode: optimized] [LP solver: NONE] [GitHash: 3bbd232]
Copyright (C) 2002-2017 Konrad-Zuse-Zentrum fuer Informationstechnik Berlin (ZIB)

External codes: 
  Readline EditLine w  GNU library for command line editing (gnu.org/s/readline)
  CppAD 20160000.1     Algorithmic Differentiation of C++ algorithms developed by B. Bell (www.coin-or.org/CppAD)
  ZLIB 1.2.5           General purpose compression library by J. Gailly and M. Adler (zlib.net)
  GMP 6.1.2            GNU Multiple Precision Arithmetic Library developed by T. Granlund (gmplib.org)

user parameter file <scip.set> not found - using default parameters

read problem <../../Split_data/output/breast/8/0_sample_breast.logreg>
============

File name	:	../../Split_data/output/breast/8/0_sample_breast.logreg
Problem name 	:	0_sample_breast
Number of data	:	155
Number of var	:	33
The given data has linear independence

[dim=1] time: 0.0034
[dim=2] time: 0.007495
[dim=3] time: 0.011317
[dim=4] time: 0.015341
[dim=5] Time of forward = 0.019169sec.
AIC: 129.051
k: 4

[dim=33] time: 0.451872
[dim=32] time: 0.859684
[dim=31] time: 1.38721
[dim=30] time: 2.15506
[dim=29] time: 2.57361
[dim=28] time: 2.92496
[dim=27] Time of backward = 2.94012sec.
AIC: 56.1106
k: 28
